language Essence 1.3

letting bot_end be [427, 27, 0, 373, 316, 145, 166, 276, 110, 163, 133, 291, 182, 5, 288, 429, 54, 62; int(1..18)]
letting bot_start be [164, 331, 275, 80, 36, 417, 414, 4, 401, 432, 416, 23, 433, 287, 5, 173, 333, 359; int(1..18)]
letting buffer_col be 2
letting buffer_row be 2
letting corridor_size be 1
letting n_shelves_col be 1
letting n_shelves_row be 29
letting shelf_col_size be 2
letting shelf_row_size be 1
